nbNodes = 12;
nbVehi = 3;
nbServi = 4;

e = 
 [|    0,  140,  227,  122,  446,  463,   92,  409,  252,  163,  353,    0,
 |    0,  385,  229,  423,  217,  185,    5,  189,  207,  152,  284,    0,
 |    0,  314,  148,  476,  469,   48,  109,  351,   35,  445,  321,    0,
 |    0,  442,   39,   92,  476,  448,  409,  205,   58,   25,  388,    0,
 |];

l = 
 [| 480, 213, 287, 200, 557, 525, 152, 476, 313, 228, 421, 480,
 | 480, 476, 312, 542, 305, 303, 116, 285, 320, 267, 384, 480,
 | 480, 407, 254, 547, 538, 139, 226, 443, 129, 538, 392, 480,
 | 480, 526, 143, 210, 593, 528, 521, 286, 156, 111, 500, 480,
 |];

a = 
 [|  1,  1,  1,  1,
 |  1,  1,  1,  1,
 |  1,  1,  1,  1,
 |];

p = array3d(1..nbNodes,1..nbVehi,1..nbServi,
[  0,  0,  0,  0,	  0,  0,  0,  0,	  0,  0,  0,  0,	
 44, 59, 36, 38,	 21, 47, 38, 18,	 29, 33, 11, 39,	
 39, 13, 15, 25,	 50, 23, 33, 10,	 37, 14, 32, 10,	
 27, 58, 47, 53,	 40, 17, 27, 52,	 44, 16, 19, 36,	
 37, 50, 14, 42,	 23, 45, 21, 52,	 17, 26, 54, 39,	
 22, 26, 41, 12,	 49, 45, 48, 33,	 18, 29, 31, 11,	
 47, 31, 42, 44,	 35, 23, 49, 14,	 31, 45, 45, 20,	
 39, 54, 39, 28,	 32, 37, 55, 35,	 18, 47, 46, 32,	
 18, 14, 41, 28,	 46, 10, 41, 40,	 29, 31, 32, 12,	
 48, 52, 15, 49,	 54, 35, 35, 39,	 25, 11, 40, 19,	
 12, 14, 13, 26,	 19, 21, 42, 13,	 20, 13, 39, 28,	
  0,  0,  0,  0,	  0,  0,  0,  0,	  0,  0,  0,  0,	
]);

rs = 
[|true,true,true,true,
 |false,true,false,false,
 |false,false,true,false,
 |false,false,false,true,
 |true,false,false,false,
 |false,true,false,false,
 |false,false,false,true,
 |false,false,true,false,
 |false,true,false,false,
 |true,false,false,false,
 |true,false,false,false,
 |true,true,true,true,
 |];

d=[|0, 18, 5, 0, 0, 16, 20, 27, 2, 26, 14, 0, 
|18, 0, 17, 18, 18, 33, 33, 33, 16, 33, 25, 18, 
|5, 17, 0, 5, 5, 21, 17, 21, 6, 21, 10, 5, 
|0, 18, 5, 0, 0, 16, 20, 27, 2, 26, 14, 0, 
|0, 18, 5, 0, 0, 16, 20, 27, 2, 26, 14, 0, 
|16, 33, 21, 16, 16, 0, 26, 38, 17, 37, 25, 16, 
|20, 33, 17, 20, 20, 26, 0, 14, 22, 13, 8, 20, 
|27, 33, 21, 27, 27, 38, 14, 0, 28, 1, 12, 27, 
|2, 16, 6, 2, 2, 17, 22, 28, 0, 27, 16, 2, 
|26, 33, 21, 26, 26, 37, 13, 1, 27, 0, 12, 26, 
|14, 25, 10, 14, 14, 25, 8, 12, 16, 12, 0, 14, 
|0, 18, 5, 0, 0, 16, 20, 27, 2, 26, 14, 0, 
|];

